Generations:
0: ((34, 39, 8, 25, 2, 18, 48, 21, 44, 49, 14, 29, 6, 33, 3, 35, 9, 0, 19, 27, 40, 31, 30, 16, 23, 15, 36, 28, 17, 41, 43, 4, 11, 38, 45, 47, 26, 46, 12, 10, 42, 32, 5, 7, 24, 22, 20, 13, 37, 1), 1313)
1: ((34, 39, 8, 25, 2, 18, 48, 21, 44, 49, 14, 29, 6, 33, 3, 35, 9, 0, 19, 27, 40, 31, 30, 16, 23, 15, 36, 28, 17, 41, 43, 4, 11, 38, 45, 47, 26, 46, 12, 10, 42, 32, 5, 7, 24, 22, 20, 13, 37, 1), 1313)
2: ((34, 39, 8, 25, 2, 18, 48, 21, 44, 49, 14, 29, 6, 33, 3, 35, 9, 0, 19, 27, 40, 31, 30, 16, 23, 15, 36, 28, 17, 41, 43, 4, 11, 38, 45, 47, 26, 46, 12, 10, 42, 32, 5, 7, 24, 22, 20, 13, 37, 1), 1313)
3: ((34, 39, 8, 25, 2, 18, 48, 21, 44, 49, 14, 29, 6, 33, 3, 35, 9, 0, 19, 27, 40, 31, 30, 16, 23, 15, 36, 28, 17, 41, 43, 4, 11, 38, 45, 47, 26, 46, 12, 10, 42, 32, 5, 7, 24, 22, 20, 13, 37, 1), 1313)
4: ((34, 39, 8, 25, 2, 18, 48, 21, 44, 49, 14, 29, 6, 33, 3, 35, 9, 0, 19, 27, 40, 31, 30, 16, 23, 15, 36, 28, 17, 41, 43, 4, 11, 38, 45, 47, 26, 46, 12, 10, 42, 32, 5, 7, 24, 22, 20, 13, 37, 1), 1313)
5: ((34, 39, 8, 25, 2, 18, 48, 21, 44, 49, 14, 29, 6, 33, 3, 35, 9, 0, 19, 27, 40, 31, 30, 16, 23, 15, 36, 28, 17, 41, 43, 4, 11, 38, 45, 47, 26, 46, 12, 10, 42, 32, 5, 7, 24, 22, 20, 13, 37, 1), 1313)
6: ((34, 39, 8, 25, 2, 18, 48, 21, 44, 49, 14, 29, 6, 33, 3, 35, 9, 0, 19, 27, 40, 31, 30, 16, 23, 15, 36, 28, 17, 41, 43, 4, 11, 38, 45, 47, 26, 46, 12, 10, 42, 32, 5, 7, 24, 22, 20, 13, 37, 1), 1313)
7: ((34, 39, 8, 25, 2, 18, 48, 21, 44, 49, 14, 29, 6, 33, 3, 35, 9, 0, 19, 27, 40, 31, 30, 16, 23, 15, 36, 28, 17, 41, 43, 4, 11, 38, 45, 47, 26, 46, 12, 10, 42, 32, 5, 7, 24, 22, 20, 13, 37, 1), 1313)
8: ((34, 39, 8, 25, 2, 18, 48, 21, 44, 49, 14, 29, 6, 33, 3, 35, 9, 0, 19, 27, 40, 31, 30, 16, 23, 15, 36, 28, 17, 41, 43, 4, 11, 38, 45, 47, 26, 46, 12, 10, 42, 32, 5, 7, 24, 22, 20, 13, 37, 1), 1313)
9: ((34, 39, 8, 25, 2, 18, 48, 21, 44, 49, 14, 29, 6, 33, 3, 35, 9, 0, 19, 27, 40, 31, 30, 16, 23, 15, 36, 28, 17, 41, 43, 4, 11, 38, 45, 47, 26, 46, 12, 10, 42, 32, 5, 7, 24, 22, 20, 13, 37, 1), 1313)
10: ((34, 39, 8, 25, 2, 18, 48, 21, 44, 49, 14, 29, 6, 33, 3, 35, 9, 0, 19, 27, 40, 31, 30, 16, 23, 15, 36, 28, 17, 41, 43, 4, 11, 38, 45, 47, 26, 46, 12, 10, 42, 32, 5, 7, 24, 22, 20, 13, 37, 1), 1313)
11: ((34, 39, 8, 25, 2, 18, 48, 21, 44, 49, 14, 29, 6, 33, 3, 35, 9, 0, 19, 27, 40, 31, 30, 16, 23, 15, 36, 28, 17, 41, 43, 4, 11, 38, 45, 47, 26, 46, 12, 10, 42, 32, 5, 7, 24, 22, 20, 13, 37, 1), 1313)
12: ((34, 39, 8, 25, 2, 18, 48, 21, 44, 49, 14, 29, 6, 33, 3, 35, 9, 0, 19, 27, 40, 31, 30, 16, 23, 15, 36, 28, 17, 41, 43, 4, 11, 38, 45, 47, 26, 46, 12, 10, 42, 32, 5, 7, 24, 22, 20, 13, 37, 1), 1313)
13: ((34, 39, 8, 25, 2, 18, 48, 21, 44, 49, 14, 29, 6, 33, 3, 35, 9, 0, 19, 27, 40, 31, 30, 16, 23, 15, 36, 28, 17, 41, 43, 4, 11, 38, 45, 47, 26, 46, 12, 10, 42, 32, 5, 7, 24, 22, 20, 13, 37, 1), 1313)
14: ((34, 39, 8, 25, 2, 18, 48, 21, 44, 49, 14, 29, 6, 33, 3, 35, 9, 0, 19, 27, 40, 31, 30, 16, 23, 15, 36, 28, 17, 41, 43, 4, 11, 38, 45, 47, 26, 46, 12, 10, 42, 32, 5, 7, 24, 22, 20, 13, 37, 1), 1313)
15: ((34, 39, 8, 25, 2, 18, 48, 21, 44, 49, 14, 29, 6, 33, 3, 35, 9, 0, 19, 27, 40, 31, 30, 16, 23, 15, 36, 28, 17, 41, 43, 4, 11, 38, 45, 47, 26, 46, 12, 10, 42, 32, 5, 7, 24, 22, 20, 13, 37, 1), 1313)
16: ((34, 39, 8, 25, 2, 18, 48, 21, 44, 49, 14, 29, 6, 33, 3, 35, 9, 0, 19, 27, 40, 31, 30, 16, 23, 15, 36, 28, 17, 41, 43, 4, 11, 38, 45, 47, 26, 46, 12, 10, 42, 32, 5, 7, 24, 22, 20, 13, 37, 1), 1313)
17: ((34, 39, 8, 25, 2, 18, 48, 21, 44, 49, 14, 29, 6, 33, 3, 35, 9, 0, 19, 27, 40, 31, 30, 16, 23, 15, 36, 28, 17, 41, 43, 4, 11, 38, 45, 47, 26, 46, 12, 10, 42, 32, 5, 7, 24, 22, 20, 13, 37, 1), 1313)
18: ((34, 39, 8, 25, 2, 18, 48, 21, 44, 49, 14, 29, 6, 33, 3, 35, 9, 0, 19, 27, 40, 31, 30, 16, 23, 15, 36, 28, 17, 41, 43, 4, 11, 38, 45, 47, 26, 46, 12, 10, 42, 32, 5, 7, 24, 22, 20, 13, 37, 1), 1313)
19: ((34, 39, 8, 25, 2, 18, 48, 21, 44, 49, 14, 29, 6, 33, 3, 35, 9, 0, 19, 27, 40, 31, 30, 16, 23, 15, 36, 28, 17, 41, 43, 4, 11, 38, 45, 47, 26, 46, 12, 10, 42, 32, 5, 7, 24, 22, 20, 13, 37, 1), 1313)
20: ((34, 39, 8, 25, 2, 18, 48, 21, 44, 49, 14, 29, 6, 33, 3, 35, 9, 0, 19, 27, 40, 31, 30, 16, 23, 15, 36, 28, 17, 41, 43, 4, 11, 38, 45, 47, 26, 46, 12, 10, 42, 32, 5, 7, 24, 22, 20, 13, 37, 1), 1313)
21: ((34, 39, 8, 25, 2, 18, 48, 21, 44, 49, 14, 29, 6, 33, 3, 35, 9, 0, 19, 27, 40, 31, 30, 16, 23, 15, 36, 28, 17, 41, 43, 4, 11, 38, 45, 47, 26, 46, 12, 10, 42, 32, 5, 7, 24, 22, 20, 13, 37, 1), 1313)
22: ((34, 39, 8, 25, 2, 18, 48, 21, 44, 49, 14, 29, 6, 33, 3, 35, 9, 0, 19, 27, 40, 31, 30, 16, 23, 15, 36, 28, 17, 41, 43, 4, 11, 38, 45, 47, 26, 46, 12, 10, 42, 32, 5, 7, 24, 22, 20, 13, 37, 1), 1313)
23: ((34, 39, 8, 25, 2, 18, 48, 21, 44, 49, 14, 29, 6, 33, 3, 35, 9, 0, 19, 27, 40, 31, 30, 16, 23, 15, 36, 28, 17, 41, 43, 4, 11, 38, 45, 47, 26, 46, 12, 10, 42, 32, 5, 7, 24, 22, 20, 13, 37, 1), 1313)
24: ((34, 39, 8, 25, 2, 18, 48, 21, 44, 49, 14, 29, 6, 33, 3, 35, 9, 0, 19, 27, 40, 31, 30, 16, 23, 15, 36, 28, 17, 41, 43, 4, 11, 38, 45, 47, 26, 46, 12, 10, 42, 32, 5, 7, 24, 22, 20, 13, 37, 1), 1313)
25: ((34, 39, 8, 25, 2, 18, 48, 21, 44, 49, 14, 29, 6, 33, 3, 35, 9, 0, 19, 27, 40, 31, 30, 16, 23, 15, 36, 28, 17, 41, 43, 4, 11, 38, 45, 47, 26, 46, 12, 10, 42, 32, 5, 7, 24, 22, 20, 13, 37, 1), 1313)
26: ((34, 39, 8, 25, 2, 18, 48, 21, 44, 49, 14, 29, 6, 33, 3, 35, 9, 0, 19, 27, 40, 31, 30, 16, 23, 15, 36, 28, 17, 41, 43, 4, 11, 38, 45, 47, 26, 46, 12, 10, 42, 32, 5, 7, 24, 22, 20, 13, 37, 1), 1313)
27: ((34, 39, 8, 25, 2, 18, 48, 21, 44, 49, 14, 29, 6, 33, 3, 35, 9, 0, 19, 27, 40, 31, 30, 16, 23, 15, 36, 28, 17, 41, 43, 4, 11, 38, 45, 47, 26, 46, 12, 10, 42, 32, 5, 7, 24, 22, 20, 13, 37, 1), 1313)
28: ((34, 39, 8, 25, 2, 18, 48, 21, 44, 49, 14, 29, 6, 33, 3, 35, 9, 0, 19, 27, 40, 31, 30, 16, 23, 15, 36, 28, 17, 41, 43, 4, 11, 38, 45, 47, 26, 46, 12, 10, 42, 32, 5, 7, 24, 22, 20, 13, 37, 1), 1313)
29: ((34, 39, 8, 25, 2, 18, 48, 21, 44, 49, 14, 29, 6, 33, 3, 35, 9, 0, 19, 27, 40, 31, 30, 16, 23, 15, 36, 28, 17, 41, 43, 4, 11, 38, 45, 47, 26, 46, 12, 10, 42, 32, 5, 7, 24, 22, 20, 13, 37, 1), 1313)
30: ((34, 39, 8, 25, 2, 18, 48, 21, 44, 49, 14, 29, 6, 33, 3, 35, 9, 0, 19, 27, 40, 31, 30, 16, 23, 15, 36, 28, 17, 41, 43, 4, 11, 38, 45, 47, 26, 46, 12, 10, 42, 32, 5, 7, 24, 22, 20, 13, 37, 1), 1313)
31: ((34, 39, 8, 25, 2, 18, 48, 21, 44, 49, 14, 29, 6, 33, 3, 35, 9, 0, 19, 27, 40, 31, 30, 16, 23, 15, 36, 28, 17, 41, 43, 4, 11, 38, 45, 47, 26, 46, 12, 10, 42, 32, 5, 7, 24, 22, 20, 13, 37, 1), 1313)
32: ((34, 39, 8, 25, 2, 18, 48, 21, 44, 49, 14, 29, 6, 33, 3, 35, 9, 0, 19, 27, 40, 31, 30, 16, 23, 15, 36, 28, 17, 41, 43, 4, 11, 38, 45, 47, 26, 46, 12, 10, 42, 32, 5, 7, 24, 22, 20, 13, 37, 1), 1313)
33: ((34, 39, 8, 25, 2, 18, 48, 21, 44, 49, 14, 29, 6, 33, 3, 35, 9, 0, 19, 27, 40, 31, 30, 16, 23, 15, 36, 28, 17, 41, 43, 4, 11, 38, 45, 47, 26, 46, 12, 10, 42, 32, 5, 7, 24, 22, 20, 13, 37, 1), 1313)
34: ((34, 39, 8, 25, 2, 18, 48, 21, 44, 49, 14, 29, 6, 33, 3, 35, 9, 0, 19, 27, 40, 31, 30, 16, 23, 15, 36, 28, 17, 41, 43, 4, 11, 38, 45, 47, 26, 46, 12, 10, 42, 32, 5, 7, 24, 22, 20, 13, 37, 1), 1313)
35: ((34, 39, 8, 25, 2, 18, 48, 21, 44, 49, 14, 29, 6, 33, 3, 35, 9, 0, 19, 27, 40, 31, 30, 16, 23, 15, 36, 28, 17, 41, 43, 4, 11, 38, 45, 47, 26, 46, 12, 10, 42, 32, 5, 7, 24, 22, 20, 13, 37, 1), 1313)
36: ((34, 39, 8, 25, 2, 18, 48, 21, 44, 49, 14, 29, 6, 33, 3, 35, 9, 0, 19, 27, 40, 31, 30, 16, 23, 15, 36, 28, 17, 41, 43, 4, 11, 38, 45, 47, 26, 46, 12, 10, 42, 32, 5, 7, 24, 22, 20, 13, 37, 1), 1313)
37: ((34, 39, 8, 25, 2, 18, 48, 21, 44, 49, 14, 29, 6, 33, 3, 35, 9, 0, 19, 27, 40, 31, 30, 16, 23, 15, 36, 28, 17, 41, 43, 4, 11, 38, 45, 47, 26, 46, 12, 10, 42, 32, 5, 7, 24, 22, 20, 13, 37, 1), 1313)
38: ((34, 39, 8, 25, 2, 18, 48, 21, 44, 49, 14, 29, 6, 33, 3, 35, 9, 0, 19, 27, 40, 31, 30, 16, 23, 15, 36, 28, 17, 41, 43, 4, 11, 38, 45, 47, 26, 46, 12, 10, 42, 32, 5, 7, 24, 22, 20, 13, 37, 1), 1313)
39: ((34, 39, 8, 25, 2, 18, 48, 21, 44, 49, 14, 29, 6, 33, 3, 35, 9, 0, 19, 27, 40, 31, 30, 16, 23, 15, 36, 28, 17, 41, 43, 4, 11, 38, 45, 47, 26, 46, 12, 10, 42, 32, 5, 7, 24, 22, 20, 13, 37, 1), 1313)
40: ((34, 39, 8, 25, 2, 18, 48, 21, 44, 49, 14, 29, 6, 33, 3, 35, 9, 0, 19, 27, 40, 31, 30, 16, 23, 15, 36, 28, 17, 41, 43, 4, 11, 38, 45, 47, 26, 46, 12, 10, 42, 32, 5, 7, 24, 22, 20, 13, 37, 1), 1313)
41: ((34, 39, 8, 25, 2, 18, 48, 21, 44, 49, 14, 29, 6, 33, 3, 35, 9, 0, 19, 27, 40, 31, 30, 16, 23, 15, 36, 28, 17, 41, 43, 4, 11, 38, 45, 47, 26, 46, 12, 10, 42, 32, 5, 7, 24, 22, 20, 13, 37, 1), 1313)
42: ((34, 39, 8, 25, 2, 18, 48, 21, 44, 49, 14, 29, 6, 33, 3, 35, 9, 0, 19, 27, 40, 31, 30, 16, 23, 15, 36, 28, 17, 41, 43, 4, 11, 38, 45, 47, 26, 46, 12, 10, 42, 32, 5, 7, 24, 22, 20, 13, 37, 1), 1313)
43: ((34, 39, 8, 25, 2, 18, 48, 21, 44, 49, 14, 29, 6, 33, 3, 35, 9, 0, 19, 27, 40, 31, 30, 16, 23, 15, 36, 28, 17, 41, 43, 4, 11, 38, 45, 47, 26, 46, 12, 10, 42, 32, 5, 7, 24, 22, 20, 13, 37, 1), 1313)
44: ((34, 39, 8, 25, 2, 18, 48, 21, 44, 49, 14, 29, 6, 33, 3, 35, 9, 0, 19, 27, 40, 31, 30, 16, 23, 15, 36, 28, 17, 41, 43, 4, 11, 38, 45, 47, 26, 46, 12, 10, 42, 32, 5, 7, 24, 22, 20, 13, 37, 1), 1313)
45: ((34, 39, 8, 25, 2, 18, 48, 21, 44, 49, 14, 29, 6, 33, 3, 35, 9, 0, 19, 27, 40, 31, 30, 16, 23, 15, 36, 28, 17, 41, 43, 4, 11, 38, 45, 47, 26, 46, 12, 10, 42, 32, 5, 7, 24, 22, 20, 13, 37, 1), 1313)
46: ((34, 39, 8, 25, 2, 18, 48, 21, 44, 49, 14, 29, 6, 33, 3, 35, 9, 0, 19, 27, 40, 31, 30, 16, 23, 15, 36, 28, 17, 41, 43, 4, 11, 38, 45, 47, 26, 46, 12, 10, 42, 32, 5, 7, 24, 22, 20, 13, 37, 1), 1313)
47: ((34, 39, 8, 25, 2, 18, 48, 21, 44, 49, 14, 29, 6, 33, 3, 35, 9, 0, 19, 27, 40, 31, 30, 16, 23, 15, 36, 28, 17, 41, 43, 4, 11, 38, 45, 47, 26, 46, 12, 10, 42, 32, 5, 7, 24, 22, 20, 13, 37, 1), 1313)
48: ((34, 39, 8, 25, 2, 18, 48, 21, 44, 49, 14, 29, 6, 33, 3, 35, 9, 0, 19, 27, 40, 31, 30, 16, 23, 15, 36, 28, 17, 41, 43, 4, 11, 38, 45, 47, 26, 46, 12, 10, 42, 32, 5, 7, 24, 22, 20, 13, 37, 1), 1313)
49: ((34, 39, 8, 25, 2, 18, 48, 21, 44, 49, 14, 29, 6, 33, 3, 35, 9, 0, 19, 27, 40, 31, 30, 16, 23, 15, 36, 28, 17, 41, 43, 4, 11, 38, 45, 47, 26, 46, 12, 10, 42, 32, 5, 7, 24, 22, 20, 13, 37, 1), 1313)
50: ((34, 39, 8, 25, 2, 18, 48, 21, 44, 49, 14, 29, 6, 33, 3, 35, 9, 0, 19, 27, 40, 31, 30, 16, 23, 15, 36, 28, 17, 41, 43, 4, 11, 38, 45, 47, 26, 46, 12, 10, 42, 32, 5, 7, 24, 22, 20, 13, 37, 1), 1313)
51: ((34, 39, 8, 25, 2, 18, 48, 21, 44, 49, 14, 29, 6, 33, 3, 35, 9, 0, 19, 27, 40, 31, 30, 16, 23, 15, 36, 28, 17, 41, 43, 4, 11, 38, 45, 47, 26, 46, 12, 10, 42, 32, 5, 7, 24, 22, 20, 13, 37, 1), 1313)
52: ((34, 39, 8, 25, 2, 18, 48, 21, 44, 49, 14, 29, 6, 33, 3, 35, 9, 0, 19, 27, 40, 31, 30, 16, 23, 15, 36, 28, 17, 41, 43, 4, 11, 38, 45, 47, 26, 46, 12, 10, 42, 32, 5, 7, 24, 22, 20, 13, 37, 1), 1313)
53: ((34, 39, 8, 25, 2, 18, 48, 21, 44, 49, 14, 29, 6, 33, 3, 35, 9, 0, 19, 27, 40, 31, 30, 16, 23, 15, 36, 28, 17, 41, 43, 4, 11, 38, 45, 47, 26, 46, 12, 10, 42, 32, 5, 7, 24, 22, 20, 13, 37, 1), 1313)
54: ((34, 39, 8, 25, 2, 18, 48, 21, 44, 49, 14, 29, 6, 33, 3, 35, 9, 0, 19, 27, 40, 31, 30, 16, 23, 15, 36, 28, 17, 41, 43, 4, 11, 38, 45, 47, 26, 46, 12, 10, 42, 32, 5, 7, 24, 22, 20, 13, 37, 1), 1313)
55: ((34, 39, 8, 25, 2, 18, 48, 21, 44, 49, 14, 29, 6, 33, 3, 35, 9, 0, 19, 27, 40, 31, 30, 16, 23, 15, 36, 28, 17, 41, 43, 4, 11, 38, 45, 47, 26, 46, 12, 10, 42, 32, 5, 7, 24, 22, 20, 13, 37, 1), 1313)
56: ((34, 39, 8, 25, 2, 18, 48, 21, 44, 49, 14, 29, 6, 33, 3, 35, 9, 0, 19, 27, 40, 31, 30, 16, 23, 15, 36, 28, 17, 41, 43, 4, 11, 38, 45, 47, 26, 46, 12, 10, 42, 32, 5, 7, 24, 22, 20, 13, 37, 1), 1313)
57: ((34, 39, 8, 25, 2, 18, 48, 21, 44, 49, 14, 29, 6, 33, 3, 35, 9, 0, 19, 27, 40, 31, 30, 16, 23, 15, 36, 28, 17, 41, 43, 4, 11, 38, 45, 47, 26, 46, 12, 10, 42, 32, 5, 7, 24, 22, 20, 13, 37, 1), 1313)
58: ((34, 39, 8, 25, 2, 18, 48, 21, 44, 49, 14, 29, 6, 33, 3, 35, 9, 0, 19, 27, 40, 31, 30, 16, 23, 15, 36, 28, 17, 41, 43, 4, 11, 38, 45, 47, 26, 46, 12, 10, 42, 32, 5, 7, 24, 22, 20, 13, 37, 1), 1313)
59: ((34, 39, 8, 25, 2, 18, 48, 21, 44, 49, 14, 29, 6, 33, 3, 35, 9, 0, 19, 27, 40, 31, 30, 16, 23, 15, 36, 28, 17, 41, 43, 4, 11, 38, 45, 47, 26, 46, 12, 10, 42, 32, 5, 7, 24, 22, 20, 13, 37, 1), 1313)
60: ((34, 39, 8, 25, 2, 18, 48, 21, 44, 49, 14, 29, 6, 33, 3, 35, 9, 0, 19, 27, 40, 31, 30, 16, 23, 15, 36, 28, 17, 41, 43, 4, 11, 38, 45, 47, 26, 46, 12, 10, 42, 32, 5, 7, 24, 22, 20, 13, 37, 1), 1313)
61: ((34, 39, 8, 25, 2, 18, 48, 21, 44, 49, 14, 29, 6, 33, 3, 35, 9, 0, 19, 27, 40, 31, 30, 16, 23, 15, 36, 28, 17, 41, 43, 4, 11, 38, 45, 47, 26, 46, 12, 10, 42, 32, 5, 7, 24, 22, 20, 13, 37, 1), 1313)
62: ((34, 39, 8, 25, 2, 18, 48, 21, 44, 49, 14, 29, 6, 33, 3, 35, 9, 0, 19, 27, 40, 31, 30, 16, 23, 15, 36, 28, 17, 41, 43, 4, 11, 38, 45, 47, 26, 46, 12, 10, 42, 32, 5, 7, 24, 22, 20, 13, 37, 1), 1313)
63: ((34, 39, 8, 25, 2, 18, 48, 21, 44, 49, 14, 29, 6, 33, 3, 35, 9, 0, 19, 27, 40, 31, 30, 16, 23, 15, 36, 28, 17, 41, 43, 4, 11, 38, 45, 47, 26, 46, 12, 10, 42, 32, 5, 7, 24, 22, 20, 13, 37, 1), 1313)
64: ((34, 39, 8, 25, 2, 18, 48, 21, 44, 49, 14, 29, 6, 33, 3, 35, 9, 0, 19, 27, 40, 31, 30, 16, 23, 15, 36, 28, 17, 41, 43, 4, 11, 38, 45, 47, 26, 46, 12, 10, 42, 32, 5, 7, 24, 22, 20, 13, 37, 1), 1313)
65: ((34, 39, 8, 25, 2, 18, 48, 21, 44, 49, 14, 29, 6, 33, 3, 35, 9, 0, 19, 27, 40, 31, 30, 16, 23, 15, 36, 28, 17, 41, 43, 4, 11, 38, 45, 47, 26, 46, 12, 10, 42, 32, 5, 7, 24, 22, 20, 13, 37, 1), 1313)
66: ((34, 39, 8, 25, 2, 18, 48, 21, 44, 49, 14, 29, 6, 33, 3, 35, 9, 0, 19, 27, 40, 31, 30, 16, 23, 15, 36, 28, 17, 41, 43, 4, 11, 38, 45, 47, 26, 46, 12, 10, 42, 32, 5, 7, 24, 22, 20, 13, 37, 1), 1313)
67: ((34, 39, 8, 25, 2, 18, 48, 21, 44, 49, 14, 29, 6, 33, 3, 35, 9, 0, 19, 27, 40, 31, 30, 16, 23, 15, 36, 28, 17, 41, 43, 4, 11, 38, 45, 47, 26, 46, 12, 10, 42, 32, 5, 7, 24, 22, 20, 13, 37, 1), 1313)
68: ((34, 39, 8, 25, 2, 18, 48, 21, 44, 49, 14, 29, 6, 33, 3, 35, 9, 0, 19, 27, 40, 31, 30, 16, 23, 15, 36, 28, 17, 41, 43, 4, 11, 38, 45, 47, 26, 46, 12, 10, 42, 32, 5, 7, 24, 22, 20, 13, 37, 1), 1313)
69: ((34, 39, 8, 25, 2, 18, 48, 21, 44, 49, 14, 29, 6, 33, 3, 35, 9, 0, 19, 27, 40, 31, 30, 16, 23, 15, 36, 28, 17, 41, 43, 4, 11, 38, 45, 47, 26, 46, 12, 10, 42, 32, 5, 7, 24, 22, 20, 13, 37, 1), 1313)
70: ((34, 39, 8, 25, 2, 18, 48, 21, 44, 49, 14, 29, 6, 33, 3, 35, 9, 0, 19, 27, 40, 31, 30, 16, 23, 15, 36, 28, 17, 41, 43, 4, 11, 38, 45, 47, 26, 46, 12, 10, 42, 32, 5, 7, 24, 22, 20, 13, 37, 1), 1313)
71: ((34, 39, 8, 25, 2, 18, 48, 21, 44, 49, 14, 29, 6, 33, 3, 35, 9, 0, 19, 27, 40, 31, 30, 16, 23, 15, 36, 28, 17, 41, 43, 4, 11, 38, 45, 47, 26, 46, 12, 10, 42, 32, 5, 7, 24, 22, 20, 13, 37, 1), 1313)
72: ((34, 39, 8, 25, 2, 18, 48, 21, 44, 49, 14, 29, 6, 33, 3, 35, 9, 0, 19, 27, 40, 31, 30, 16, 23, 15, 36, 28, 17, 41, 43, 4, 11, 38, 45, 47, 26, 46, 12, 10, 42, 32, 5, 7, 24, 22, 20, 13, 37, 1), 1313)
73: ((34, 39, 8, 25, 2, 18, 48, 21, 44, 49, 14, 29, 6, 33, 3, 35, 9, 0, 19, 27, 40, 31, 30, 16, 23, 15, 36, 28, 17, 41, 43, 4, 11, 38, 45, 47, 26, 46, 12, 10, 42, 32, 5, 7, 24, 22, 20, 13, 37, 1), 1313)
74: ((34, 39, 8, 25, 2, 18, 48, 21, 44, 49, 14, 29, 6, 33, 3, 35, 9, 0, 19, 27, 40, 31, 30, 16, 23, 15, 36, 28, 17, 41, 43, 4, 11, 38, 45, 47, 26, 46, 12, 10, 42, 32, 5, 7, 24, 22, 20, 13, 37, 1), 1313)
75: ((34, 39, 8, 25, 2, 18, 48, 21, 44, 49, 14, 29, 6, 33, 3, 35, 9, 0, 19, 27, 40, 31, 30, 16, 23, 15, 36, 28, 17, 41, 43, 4, 11, 38, 45, 47, 26, 46, 12, 10, 42, 32, 5, 7, 24, 22, 20, 13, 37, 1), 1313)
76: ((34, 39, 8, 25, 2, 18, 48, 21, 44, 49, 14, 29, 6, 33, 3, 35, 9, 0, 19, 27, 40, 31, 30, 16, 23, 15, 36, 28, 17, 41, 43, 4, 11, 38, 45, 47, 26, 46, 12, 10, 42, 32, 5, 7, 24, 22, 20, 13, 37, 1), 1313)
77: ((34, 39, 8, 25, 2, 18, 48, 21, 44, 49, 14, 29, 6, 33, 3, 35, 9, 0, 19, 27, 40, 31, 30, 16, 23, 15, 36, 28, 17, 41, 43, 4, 11, 38, 45, 47, 26, 46, 12, 10, 42, 32, 5, 7, 24, 22, 20, 13, 37, 1), 1313)
78: ((34, 39, 8, 25, 2, 18, 48, 21, 44, 49, 14, 29, 6, 33, 3, 35, 9, 0, 19, 27, 40, 31, 30, 16, 23, 15, 36, 28, 17, 41, 43, 4, 11, 38, 45, 47, 26, 46, 12, 10, 42, 32, 5, 7, 24, 22, 20, 13, 37, 1), 1313)
79: ((34, 39, 8, 25, 2, 18, 48, 21, 44, 49, 14, 29, 6, 33, 3, 35, 9, 0, 19, 27, 40, 31, 30, 16, 23, 15, 36, 28, 17, 41, 43, 4, 11, 38, 45, 47, 26, 46, 12, 10, 42, 32, 5, 7, 24, 22, 20, 13, 37, 1), 1313)
80: ((34, 39, 8, 25, 2, 18, 48, 21, 44, 49, 14, 29, 6, 33, 3, 35, 9, 0, 19, 27, 40, 31, 30, 16, 23, 15, 36, 28, 17, 41, 43, 4, 11, 38, 45, 47, 26, 46, 12, 10, 42, 32, 5, 7, 24, 22, 20, 13, 37, 1), 1313)
81: ((34, 39, 8, 25, 2, 18, 48, 21, 44, 49, 14, 29, 6, 33, 3, 35, 9, 0, 19, 27, 40, 31, 30, 16, 23, 15, 36, 28, 17, 41, 43, 4, 11, 38, 45, 47, 26, 46, 12, 10, 42, 32, 5, 7, 24, 22, 20, 13, 37, 1), 1313)
82: ((34, 39, 8, 25, 2, 18, 48, 21, 44, 49, 14, 29, 6, 33, 3, 35, 9, 0, 19, 27, 40, 31, 30, 16, 23, 15, 36, 28, 17, 41, 43, 4, 11, 38, 45, 47, 26, 46, 12, 10, 42, 32, 5, 7, 24, 22, 20, 13, 37, 1), 1313)
83: ((34, 39, 8, 25, 2, 18, 48, 21, 44, 49, 14, 29, 6, 33, 3, 35, 9, 0, 19, 27, 40, 31, 30, 16, 23, 15, 36, 28, 17, 41, 43, 4, 11, 38, 45, 47, 26, 46, 12, 10, 42, 32, 5, 7, 24, 22, 20, 13, 37, 1), 1313)
84: ((34, 39, 8, 25, 2, 18, 48, 21, 44, 49, 14, 29, 6, 33, 3, 35, 9, 0, 19, 27, 40, 31, 30, 16, 23, 15, 36, 28, 17, 41, 43, 4, 11, 38, 45, 47, 26, 46, 12, 10, 42, 32, 5, 7, 24, 22, 20, 13, 37, 1), 1313)
85: ((34, 39, 8, 25, 2, 18, 48, 21, 44, 49, 14, 29, 6, 33, 3, 35, 9, 0, 19, 27, 40, 31, 30, 16, 23, 15, 36, 28, 17, 41, 43, 4, 11, 38, 45, 47, 26, 46, 12, 10, 42, 32, 5, 7, 24, 22, 20, 13, 37, 1), 1313)
86: ((34, 39, 8, 25, 2, 18, 48, 21, 44, 49, 14, 29, 6, 33, 3, 35, 9, 0, 19, 27, 40, 31, 30, 16, 23, 15, 36, 28, 17, 41, 43, 4, 11, 38, 45, 47, 26, 46, 12, 10, 42, 32, 5, 7, 24, 22, 20, 13, 37, 1), 1313)
87: ((34, 39, 8, 25, 2, 18, 48, 21, 44, 49, 14, 29, 6, 33, 3, 35, 9, 0, 19, 27, 40, 31, 30, 16, 23, 15, 36, 28, 17, 41, 43, 4, 11, 38, 45, 47, 26, 46, 12, 10, 42, 32, 5, 7, 24, 22, 20, 13, 37, 1), 1313)
88: ((34, 39, 8, 25, 2, 18, 48, 21, 44, 49, 14, 29, 6, 33, 3, 35, 9, 0, 19, 27, 40, 31, 30, 16, 23, 15, 36, 28, 17, 41, 43, 4, 11, 38, 45, 47, 26, 46, 12, 10, 42, 32, 5, 7, 24, 22, 20, 13, 37, 1), 1313)
89: ((34, 39, 8, 25, 2, 18, 48, 21, 44, 49, 14, 29, 6, 33, 3, 35, 9, 0, 19, 27, 40, 31, 30, 16, 23, 15, 36, 28, 17, 41, 43, 4, 11, 38, 45, 47, 26, 46, 12, 10, 42, 32, 5, 7, 24, 22, 20, 13, 37, 1), 1313)
90: ((34, 39, 8, 25, 2, 18, 48, 21, 44, 49, 14, 29, 6, 33, 3, 35, 9, 0, 19, 27, 40, 31, 30, 16, 23, 15, 36, 28, 17, 41, 43, 4, 11, 38, 45, 47, 26, 46, 12, 10, 42, 32, 5, 7, 24, 22, 20, 13, 37, 1), 1313)
91: ((34, 39, 8, 25, 2, 18, 48, 21, 44, 49, 14, 29, 6, 33, 3, 35, 9, 0, 19, 27, 40, 31, 30, 16, 23, 15, 36, 28, 17, 41, 43, 4, 11, 38, 45, 47, 26, 46, 12, 10, 42, 32, 5, 7, 24, 22, 20, 13, 37, 1), 1313)
92: ((34, 39, 8, 25, 2, 18, 48, 21, 44, 49, 14, 29, 6, 33, 3, 35, 9, 0, 19, 27, 40, 31, 30, 16, 23, 15, 36, 28, 17, 41, 43, 4, 11, 38, 45, 47, 26, 46, 12, 10, 42, 32, 5, 7, 24, 22, 20, 13, 37, 1), 1313)
93: ((34, 39, 8, 25, 2, 18, 48, 21, 44, 49, 14, 29, 6, 33, 3, 35, 9, 0, 19, 27, 40, 31, 30, 16, 23, 15, 36, 28, 17, 41, 43, 4, 11, 38, 45, 47, 26, 46, 12, 10, 42, 32, 5, 7, 24, 22, 20, 13, 37, 1), 1313)
94: ((34, 39, 8, 25, 2, 18, 48, 21, 44, 49, 14, 29, 6, 33, 3, 35, 9, 0, 19, 27, 40, 31, 30, 16, 23, 15, 36, 28, 17, 41, 43, 4, 11, 38, 45, 47, 26, 46, 12, 10, 42, 32, 5, 7, 24, 22, 20, 13, 37, 1), 1313)
95: ((34, 39, 8, 25, 2, 18, 48, 21, 44, 49, 14, 29, 6, 33, 3, 35, 9, 0, 19, 27, 40, 31, 30, 16, 23, 15, 36, 28, 17, 41, 43, 4, 11, 38, 45, 47, 26, 46, 12, 10, 42, 32, 5, 7, 24, 22, 20, 13, 37, 1), 1313)
Best: ((34, 39, 8, 25, 2, 18, 48, 21, 44, 49, 14, 29, 6, 33, 3, 35, 9, 0, 19, 27, 40, 31, 30, 16, 23, 15, 36, 28, 17, 41, 43, 4, 11, 38, 45, 47, 26, 46, 12, 10, 42, 32, 5, 7, 24, 22, 20, 13, 37, 1), 1313)
Runtime: 19.514865999999998 s